c t pwmc
c file mc2022_track4_151.cnf
p cnf 135 1269
c p show 3 5 6 7 8 10 12 13 17 21 22 23 24 28 30 32 33 38 42 43 44 47 48 50 51 52 54 55 56 57 58 62 63 64 65 66 71 72 75 76 79 82 86 88 91 92 93 94 96 98 99 100 102 104 107 109 110 113 114 115 116 120 123 124 125 128 131 135 0
-1 46 -91 0
1 -46 -91 0
-1 -46 -91 0
-2 47 -92 0
2 -47 -92 0
-2 -47 -92 0
-3 48 -93 0
3 -48 -93 0
-3 -48 -93 0
-4 49 -94 0
4 -49 -94 0
-4 -49 -94 0
-5 50 -95 0
5 -50 -95 0
-5 -50 -95 0
-6 51 -96 0
6 -51 -96 0
-6 -51 -96 0
-7 52 -97 0
7 -52 -97 0
-7 -52 -97 0
-8 53 -98 0
8 -53 -98 0
-8 -53 -98 0
-9 54 -99 0
9 -54 -99 0
-9 -54 -99 0
-10 55 -100 0
10 -55 -100 0
-10 -55 -100 0
-11 56 -101 0
11 -56 -101 0
-11 -56 -101 0
-12 57 -102 0
12 -57 -102 0
-12 -57 -102 0
-13 58 -103 0
13 -58 -103 0
-13 -58 -103 0
-14 59 -104 0
14 -59 -104 0
-14 -59 -104 0
-15 60 -105 0
15 -60 -105 0
-15 -60 -105 0
-16 61 -106 0
16 -61 -106 0
-16 -61 -106 0
-17 62 -107 0
17 -62 -107 0
-17 -62 -107 0
-18 63 -108 0
18 -63 -108 0
-18 -63 -108 0
-19 64 -109 0
19 -64 -109 0
-19 -64 -109 0
-20 65 -110 0
20 -65 -110 0
-20 -65 -110 0
-21 66 -111 0
21 -66 -111 0
-21 -66 -111 0
-22 67 -112 0
22 -67 -112 0
-22 -67 -112 0
-23 68 -113 0
23 -68 -113 0
-23 -68 -113 0
-24 69 -114 0
24 -69 -114 0
-24 -69 -114 0
-25 70 -115 0
25 -70 -115 0
-25 -70 -115 0
-26 71 -116 0
26 -71 -116 0
-26 -71 -116 0
-27 72 -117 0
27 -72 -117 0
-27 -72 -117 0
-28 73 -118 0
28 -73 -118 0
-28 -73 -118 0
-29 74 -119 0
29 -74 -119 0
-29 -74 -119 0
-30 75 -120 0
30 -75 -120 0
-30 -75 -120 0
-31 76 -121 0
31 -76 -121 0
-31 -76 -121 0
-32 77 -122 0
32 -77 -122 0
-32 -77 -122 0
-33 78 -123 0
33 -78 -123 0
-33 -78 -123 0
-34 79 -124 0
34 -79 -124 0
-34 -79 -124 0
-35 80 -125 0
35 -80 -125 0
-35 -80 -125 0
-36 81 -126 0
36 -81 -126 0
-36 -81 -126 0
-37 82 -127 0
37 -82 -127 0
-37 -82 -127 0
-38 83 -128 0
38 -83 -128 0
-38 -83 -128 0
-39 84 -129 0
39 -84 -129 0
-39 -84 -129 0
-40 85 -130 0
40 -85 -130 0
-40 -85 -130 0
-41 86 -131 0
41 -86 -131 0
-41 -86 -131 0
-42 87 -132 0
42 -87 -132 0
-42 -87 -132 0
-43 88 -133 0
43 -88 -133 0
-43 -88 -133 0
-44 89 -134 0
44 -89 -134 0
-44 -89 -134 0
-45 90 -135 0
45 -90 -135 0
-45 -90 -135 0
-1 0
-46 0
-91 0
5 0
-50 0
-95 0
-15 0
60 0
-105 0
1 46 91 5 50 95 0
-1 46 91 -5 50 95 0
1 -46 91 5 -50 95 0
-1 -46 91 -5 -50 95 0
1 46 -91 5 50 -95 0
1 46 91 15 60 105 0
-1 46 91 -15 60 105 0
1 -46 91 15 -60 105 0
-1 -46 91 -15 -60 105 0
1 46 -91 15 60 -105 0
1 46 91 17 62 107 0
-1 46 91 -17 62 107 0
1 -46 91 17 -62 107 0
-1 -46 91 -17 -62 107 0
1 46 -91 17 62 -107 0
1 46 91 40 85 130 0
-1 46 91 -40 85 130 0
1 -46 91 40 -85 130 0
-1 -46 91 -40 -85 130 0
1 46 -91 40 85 -130 0
1 46 91 29 74 119 0
-1 46 91 -29 74 119 0
1 -46 91 29 -74 119 0
-1 -46 91 -29 -74 119 0
1 46 -91 29 74 -119 0
1 46 91 2 47 92 0
-1 46 91 -2 47 92 0
1 -46 91 2 -47 92 0
-1 -46 91 -2 -47 92 0
1 46 -91 2 47 -92 0
1 46 91 17 62 107 0
-1 46 91 -17 62 107 0
1 -46 91 17 -62 107 0
-1 -46 91 -17 -62 107 0
1 46 -91 17 62 -107 0
1 46 91 43 88 133 0
-1 46 91 -43 88 133 0
1 -46 91 43 -88 133 0
-1 -46 91 -43 -88 133 0
1 46 -91 43 88 -133 0
1 46 91 15 60 105 0
-1 46 91 -15 60 105 0
1 -46 91 15 -60 105 0
-1 -46 91 -15 -60 105 0
1 46 -91 15 60 -105 0
1 46 91 14 59 104 0
-1 46 91 -14 59 104 0
1 -46 91 14 -59 104 0
-1 -46 91 -14 -59 104 0
1 46 -91 14 59 -104 0
2 47 92 15 60 105 0
-2 47 92 -15 60 105 0
2 -47 92 15 -60 105 0
-2 -47 92 -15 -60 105 0
2 47 -92 15 60 -105 0
2 47 92 16 61 106 0
-2 47 92 -16 61 106 0
2 -47 92 16 -61 106 0
-2 -47 92 -16 -61 106 0
2 47 -92 16 61 -106 0
2 47 92 15 60 105 0
-2 47 92 -15 60 105 0
2 -47 92 15 -60 105 0
-2 -47 92 -15 -60 105 0
2 47 -92 15 60 -105 0
2 47 92 27 72 117 0
-2 47 92 -27 72 117 0
2 -47 92 27 -72 117 0
-2 -47 92 -27 -72 117 0
2 47 -92 27 72 -117 0
2 47 92 24 69 114 0
-2 47 92 -24 69 114 0
2 -47 92 24 -69 114 0
-2 -47 92 -24 -69 114 0
2 47 -92 24 69 -114 0
2 47 92 4 49 94 0
-2 47 92 -4 49 94 0
2 -47 92 4 -49 94 0
-2 -47 92 -4 -49 94 0
2 47 -92 4 49 -94 0
2 47 92 25 70 115 0
-2 47 92 -25 70 115 0
2 -47 92 25 -70 115 0
-2 -47 92 -25 -70 115 0
2 47 -92 25 70 -115 0
2 47 92 9 54 99 0
-2 47 92 -9 54 99 0
2 -47 92 9 -54 99 0
-2 -47 92 -9 -54 99 0
2 47 -92 9 54 -99 0
2 47 92 36 81 126 0
-2 47 92 -36 81 126 0
2 -47 92 36 -81 126 0
-2 -47 92 -36 -81 126 0
2 47 -92 36 81 -126 0
3 48 93 24 69 114 0
-3 48 93 -24 69 114 0
3 -48 93 24 -69 114 0
-3 -48 93 -24 -69 114 0
3 48 -93 24 69 -114 0
3 48 93 35 80 125 0
-3 48 93 -35 80 125 0
3 -48 93 35 -80 125 0
-3 -48 93 -35 -80 125 0
3 48 -93 35 80 -125 0
3 48 93 6 51 96 0
-3 48 93 -6 51 96 0
3 -48 93 6 -51 96 0
-3 -48 93 -6 -51 96 0
3 48 -93 6 51 -96 0
3 48 93 19 64 109 0
-3 48 93 -19 64 109 0
3 -48 93 19 -64 109 0
-3 -48 93 -19 -64 109 0
3 48 -93 19 64 -109 0
3 48 93 16 61 106 0
-3 48 93 -16 61 106 0
3 -48 93 16 -61 106 0
-3 -48 93 -16 -61 106 0
3 48 -93 16 61 -106 0
3 48 93 20 65 110 0
-3 48 93 -20 65 110 0
3 -48 93 20 -65 110 0
-3 -48 93 -20 -65 110 0
3 48 -93 20 65 -110 0
3 48 93 18 63 108 0
-3 48 93 -18 63 108 0
3 -48 93 18 -63 108 0
-3 -48 93 -18 -63 108 0
3 48 -93 18 63 -108 0
3 48 93 19 64 109 0
-3 48 93 -19 64 109 0
3 -48 93 19 -64 109 0
-3 -48 93 -19 -64 109 0
3 48 -93 19 64 -109 0
3 48 93 26 71 116 0
-3 48 93 -26 71 116 0
3 -48 93 26 -71 116 0
-3 -48 93 -26 -71 116 0
3 48 -93 26 71 -116 0
3 48 93 37 82 127 0
-3 48 93 -37 82 127 0
3 -48 93 37 -82 127 0
-3 -48 93 -37 -82 127 0
3 48 -93 37 82 -127 0
4 49 94 44 89 134 0
-4 49 94 -44 89 134 0
4 -49 94 44 -89 134 0
-4 -49 94 -44 -89 134 0
4 49 -94 44 89 -134 0
4 49 94 22 67 112 0
-4 49 94 -22 67 112 0
4 -49 94 22 -67 112 0
-4 -49 94 -22 -67 112 0
4 49 -94 22 67 -112 0
4 49 94 16 61 106 0
-4 49 94 -16 61 106 0
4 -49 94 16 -61 106 0
-4 -49 94 -16 -61 106 0
4 49 -94 16 61 -106 0
4 49 94 8 53 98 0
-4 49 94 -8 53 98 0
4 -49 94 8 -53 98 0
-4 -49 94 -8 -53 98 0
4 49 -94 8 53 -98 0
4 49 94 14 59 104 0
-4 49 94 -14 59 104 0
4 -49 94 14 -59 104 0
-4 -49 94 -14 -59 104 0
4 49 -94 14 59 -104 0
4 49 94 37 82 127 0
-4 49 94 -37 82 127 0
4 -49 94 37 -82 127 0
-4 -49 94 -37 -82 127 0
4 49 -94 37 82 -127 0
4 49 94 30 75 120 0
-4 49 94 -30 75 120 0
4 -49 94 30 -75 120 0
-4 -49 94 -30 -75 120 0
4 49 -94 30 75 -120 0
4 49 94 39 84 129 0
-4 49 94 -39 84 129 0
4 -49 94 39 -84 129 0
-4 -49 94 -39 -84 129 0
4 49 -94 39 84 -129 0
4 49 94 40 85 130 0
-4 49 94 -40 85 130 0
4 -49 94 40 -85 130 0
-4 -49 94 -40 -85 130 0
4 49 -94 40 85 -130 0
5 50 95 34 79 124 0
-5 50 95 -34 79 124 0
5 -50 95 34 -79 124 0
-5 -50 95 -34 -79 124 0
5 50 -95 34 79 -124 0
5 50 95 13 58 103 0
-5 50 95 -13 58 103 0
5 -50 95 13 -58 103 0
-5 -50 95 -13 -58 103 0
5 50 -95 13 58 -103 0
5 50 95 33 78 123 0
-5 50 95 -33 78 123 0
5 -50 95 33 -78 123 0
-5 -50 95 -33 -78 123 0
5 50 -95 33 78 -123 0
5 50 95 38 83 128 0
-5 50 95 -38 83 128 0
5 -50 95 38 -83 128 0
-5 -50 95 -38 -83 128 0
5 50 -95 38 83 -128 0
5 50 95 15 60 105 0
-5 50 95 -15 60 105 0
5 -50 95 15 -60 105 0
-5 -50 95 -15 -60 105 0
5 50 -95 15 60 -105 0
5 50 95 29 74 119 0
-5 50 95 -29 74 119 0
5 -50 95 29 -74 119 0
-5 -50 95 -29 -74 119 0
5 50 -95 29 74 -119 0
5 50 95 40 85 130 0
-5 50 95 -40 85 130 0
5 -50 95 40 -85 130 0
-5 -50 95 -40 -85 130 0
5 50 -95 40 85 -130 0
5 50 95 8 53 98 0
-5 50 95 -8 53 98 0
5 -50 95 8 -53 98 0
-5 -50 95 -8 -53 98 0
5 50 -95 8 53 -98 0
5 50 95 18 63 108 0
-5 50 95 -18 63 108 0
5 -50 95 18 -63 108 0
-5 -50 95 -18 -63 108 0
5 50 -95 18 63 -108 0
6 51 96 20 65 110 0
-6 51 96 -20 65 110 0
6 -51 96 20 -65 110 0
-6 -51 96 -20 -65 110 0
6 51 -96 20 65 -110 0
6 51 96 27 72 117 0
-6 51 96 -27 72 117 0
6 -51 96 27 -72 117 0
-6 -51 96 -27 -72 117 0
6 51 -96 27 72 -117 0
6 51 96 12 57 102 0
-6 51 96 -12 57 102 0
6 -51 96 12 -57 102 0
-6 -51 96 -12 -57 102 0
6 51 -96 12 57 -102 0
6 51 96 29 74 119 0
-6 51 96 -29 74 119 0
6 -51 96 29 -74 119 0
-6 -51 96 -29 -74 119 0
6 51 -96 29 74 -119 0
6 51 96 11 56 101 0
-6 51 96 -11 56 101 0
6 -51 96 11 -56 101 0
-6 -51 96 -11 -56 101 0
6 51 -96 11 56 -101 0
6 51 96 10 55 100 0
-6 51 96 -10 55 100 0
6 -51 96 10 -55 100 0
-6 -51 96 -10 -55 100 0
6 51 -96 10 55 -100 0
6 51 96 45 90 135 0
-6 51 96 -45 90 135 0
6 -51 96 45 -90 135 0
-6 -51 96 -45 -90 135 0
6 51 -96 45 90 -135 0
6 51 96 29 74 119 0
-6 51 96 -29 74 119 0
6 -51 96 29 -74 119 0
-6 -51 96 -29 -74 119 0
6 51 -96 29 74 -119 0
6 51 96 30 75 120 0
-6 51 96 -30 75 120 0
6 -51 96 30 -75 120 0
-6 -51 96 -30 -75 120 0
6 51 -96 30 75 -120 0
7 52 97 43 88 133 0
-7 52 97 -43 88 133 0
7 -52 97 43 -88 133 0
-7 -52 97 -43 -88 133 0
7 52 -97 43 88 -133 0
7 52 97 33 78 123 0
-7 52 97 -33 78 123 0
7 -52 97 33 -78 123 0
-7 -52 97 -33 -78 123 0
7 52 -97 33 78 -123 0
7 52 97 36 81 126 0
-7 52 97 -36 81 126 0
7 -52 97 36 -81 126 0
-7 -52 97 -36 -81 126 0
7 52 -97 36 81 -126 0
7 52 97 45 90 135 0
-7 52 97 -45 90 135 0
7 -52 97 45 -90 135 0
-7 -52 97 -45 -90 135 0
7 52 -97 45 90 -135 0
7 52 97 27 72 117 0
-7 52 97 -27 72 117 0
7 -52 97 27 -72 117 0
-7 -52 97 -27 -72 117 0
7 52 -97 27 72 -117 0
7 52 97 41 86 131 0
-7 52 97 -41 86 131 0
7 -52 97 41 -86 131 0
-7 -52 97 -41 -86 131 0
7 52 -97 41 86 -131 0
7 52 97 38 83 128 0
-7 52 97 -38 83 128 0
7 -52 97 38 -83 128 0
-7 -52 97 -38 -83 128 0
7 52 -97 38 83 -128 0
7 52 97 21 66 111 0
-7 52 97 -21 66 111 0
7 -52 97 21 -66 111 0
-7 -52 97 -21 -66 111 0
7 52 -97 21 66 -111 0
7 52 97 13 58 103 0
-7 52 97 -13 58 103 0
7 -52 97 13 -58 103 0
-7 -52 97 -13 -58 103 0
7 52 -97 13 58 -103 0
7 52 97 31 76 121 0
-7 52 97 -31 76 121 0
7 -52 97 31 -76 121 0
-7 -52 97 -31 -76 121 0
7 52 -97 31 76 -121 0
8 53 98 42 87 132 0
-8 53 98 -42 87 132 0
8 -53 98 42 -87 132 0
-8 -53 98 -42 -87 132 0
8 53 -98 42 87 -132 0
8 53 98 25 70 115 0
-8 53 98 -25 70 115 0
8 -53 98 25 -70 115 0
-8 -53 98 -25 -70 115 0
8 53 -98 25 70 -115 0
8 53 98 40 85 130 0
-8 53 98 -40 85 130 0
8 -53 98 40 -85 130 0
-8 -53 98 -40 -85 130 0
8 53 -98 40 85 -130 0
8 53 98 41 86 131 0
-8 53 98 -41 86 131 0
8 -53 98 41 -86 131 0
-8 -53 98 -41 -86 131 0
8 53 -98 41 86 -131 0
8 53 98 22 67 112 0
-8 53 98 -22 67 112 0
8 -53 98 22 -67 112 0
-8 -53 98 -22 -67 112 0
8 53 -98 22 67 -112 0
8 53 98 26 71 116 0
-8 53 98 -26 71 116 0
8 -53 98 26 -71 116 0
-8 -53 98 -26 -71 116 0
8 53 -98 26 71 -116 0
8 53 98 33 78 123 0
-8 53 98 -33 78 123 0
8 -53 98 33 -78 123 0
-8 -53 98 -33 -78 123 0
8 53 -98 33 78 -123 0
8 53 98 35 80 125 0
-8 53 98 -35 80 125 0
8 -53 98 35 -80 125 0
-8 -53 98 -35 -80 125 0
8 53 -98 35 80 -125 0
9 54 99 43 88 133 0
-9 54 99 -43 88 133 0
9 -54 99 43 -88 133 0
-9 -54 99 -43 -88 133 0
9 54 -99 43 88 -133 0
9 54 99 24 69 114 0
-9 54 99 -24 69 114 0
9 -54 99 24 -69 114 0
-9 -54 99 -24 -69 114 0
9 54 -99 24 69 -114 0
9 54 99 32 77 122 0
-9 54 99 -32 77 122 0
9 -54 99 32 -77 122 0
-9 -54 99 -32 -77 122 0
9 54 -99 32 77 -122 0
9 54 99 10 55 100 0
-9 54 99 -10 55 100 0
9 -54 99 10 -55 100 0
-9 -54 99 -10 -55 100 0
9 54 -99 10 55 -100 0
9 54 99 38 83 128 0
-9 54 99 -38 83 128 0
9 -54 99 38 -83 128 0
-9 -54 99 -38 -83 128 0
9 54 -99 38 83 -128 0
9 54 99 43 88 133 0
-9 54 99 -43 88 133 0
9 -54 99 43 -88 133 0
-9 -54 99 -43 -88 133 0
9 54 -99 43 88 -133 0
9 54 99 27 72 117 0
-9 54 99 -27 72 117 0
9 -54 99 27 -72 117 0
-9 -54 99 -27 -72 117 0
9 54 -99 27 72 -117 0
9 54 99 19 64 109 0
-9 54 99 -19 64 109 0
9 -54 99 19 -64 109 0
-9 -54 99 -19 -64 109 0
9 54 -99 19 64 -109 0
9 54 99 41 86 131 0
-9 54 99 -41 86 131 0
9 -54 99 41 -86 131 0
-9 -54 99 -41 -86 131 0
9 54 -99 41 86 -131 0
10 55 100 25 70 115 0
-10 55 100 -25 70 115 0
10 -55 100 25 -70 115 0
-10 -55 100 -25 -70 115 0
10 55 -100 25 70 -115 0
10 55 100 31 76 121 0
-10 55 100 -31 76 121 0
10 -55 100 31 -76 121 0
-10 -55 100 -31 -76 121 0
10 55 -100 31 76 -121 0
10 55 100 14 59 104 0
-10 55 100 -14 59 104 0
10 -55 100 14 -59 104 0
-10 -55 100 -14 -59 104 0
10 55 -100 14 59 -104 0
10 55 100 21 66 111 0
-10 55 100 -21 66 111 0
10 -55 100 21 -66 111 0
-10 -55 100 -21 -66 111 0
10 55 -100 21 66 -111 0
10 55 100 35 80 125 0
-10 55 100 -35 80 125 0
10 -55 100 35 -80 125 0
-10 -55 100 -35 -80 125 0
10 55 -100 35 80 -125 0
10 55 100 15 60 105 0
-10 55 100 -15 60 105 0
10 -55 100 15 -60 105 0
-10 -55 100 -15 -60 105 0
10 55 -100 15 60 -105 0
10 55 100 16 61 106 0
-10 55 100 -16 61 106 0
10 -55 100 16 -61 106 0
-10 -55 100 -16 -61 106 0
10 55 -100 16 61 -106 0
10 55 100 24 69 114 0
-10 55 100 -24 69 114 0
10 -55 100 24 -69 114 0
-10 -55 100 -24 -69 114 0
10 55 -100 24 69 -114 0
11 56 101 22 67 112 0
-11 56 101 -22 67 112 0
11 -56 101 22 -67 112 0
-11 -56 101 -22 -67 112 0
11 56 -101 22 67 -112 0
11 56 101 17 62 107 0
-11 56 101 -17 62 107 0
11 -56 101 17 -62 107 0
-11 -56 101 -17 -62 107 0
11 56 -101 17 62 -107 0
11 56 101 45 90 135 0
-11 56 101 -45 90 135 0
11 -56 101 45 -90 135 0
-11 -56 101 -45 -90 135 0
11 56 -101 45 90 -135 0
11 56 101 22 67 112 0
-11 56 101 -22 67 112 0
11 -56 101 22 -67 112 0
-11 -56 101 -22 -67 112 0
11 56 -101 22 67 -112 0
11 56 101 36 81 126 0
-11 56 101 -36 81 126 0
11 -56 101 36 -81 126 0
-11 -56 101 -36 -81 126 0
11 56 -101 36 81 -126 0
11 56 101 18 63 108 0
-11 56 101 -18 63 108 0
11 -56 101 18 -63 108 0
-11 -56 101 -18 -63 108 0
11 56 -101 18 63 -108 0
11 56 101 31 76 121 0
-11 56 101 -31 76 121 0
11 -56 101 31 -76 121 0
-11 -56 101 -31 -76 121 0
11 56 -101 31 76 -121 0
11 56 101 34 79 124 0
-11 56 101 -34 79 124 0
11 -56 101 34 -79 124 0
-11 -56 101 -34 -79 124 0
11 56 -101 34 79 -124 0
11 56 101 16 61 106 0
-11 56 101 -16 61 106 0
11 -56 101 16 -61 106 0
-11 -56 101 -16 -61 106 0
11 56 -101 16 61 -106 0
12 57 102 41 86 131 0
-12 57 102 -41 86 131 0
12 -57 102 41 -86 131 0
-12 -57 102 -41 -86 131 0
12 57 -102 41 86 -131 0
12 57 102 41 86 131 0
-12 57 102 -41 86 131 0
12 -57 102 41 -86 131 0
-12 -57 102 -41 -86 131 0
12 57 -102 41 86 -131 0
12 57 102 42 87 132 0
-12 57 102 -42 87 132 0
12 -57 102 42 -87 132 0
-12 -57 102 -42 -87 132 0
12 57 -102 42 87 -132 0
12 57 102 26 71 116 0
-12 57 102 -26 71 116 0
12 -57 102 26 -71 116 0
-12 -57 102 -26 -71 116 0
12 57 -102 26 71 -116 0
12 57 102 33 78 123 0
-12 57 102 -33 78 123 0
12 -57 102 33 -78 123 0
-12 -57 102 -33 -78 123 0
12 57 -102 33 78 -123 0
12 57 102 33 78 123 0
-12 57 102 -33 78 123 0
12 -57 102 33 -78 123 0
-12 -57 102 -33 -78 123 0
12 57 -102 33 78 -123 0
12 57 102 22 67 112 0
-12 57 102 -22 67 112 0
12 -57 102 22 -67 112 0
-12 -57 102 -22 -67 112 0
12 57 -102 22 67 -112 0
12 57 102 34 79 124 0
-12 57 102 -34 79 124 0
12 -57 102 34 -79 124 0
-12 -57 102 -34 -79 124 0
12 57 -102 34 79 -124 0
12 57 102 40 85 130 0
-12 57 102 -40 85 130 0
12 -57 102 40 -85 130 0
-12 -57 102 -40 -85 130 0
12 57 -102 40 85 -130 0
13 58 103 29 74 119 0
-13 58 103 -29 74 119 0
13 -58 103 29 -74 119 0
-13 -58 103 -29 -74 119 0
13 58 -103 29 74 -119 0
13 58 103 37 82 127 0
-13 58 103 -37 82 127 0
13 -58 103 37 -82 127 0
-13 -58 103 -37 -82 127 0
13 58 -103 37 82 -127 0
13 58 103 20 65 110 0
-13 58 103 -20 65 110 0
13 -58 103 20 -65 110 0
-13 -58 103 -20 -65 110 0
13 58 -103 20 65 -110 0
13 58 103 19 64 109 0
-13 58 103 -19 64 109 0
13 -58 103 19 -64 109 0
-13 -58 103 -19 -64 109 0
13 58 -103 19 64 -109 0
13 58 103 35 80 125 0
-13 58 103 -35 80 125 0
13 -58 103 35 -80 125 0
-13 -58 103 -35 -80 125 0
13 58 -103 35 80 -125 0
13 58 103 16 61 106 0
-13 58 103 -16 61 106 0
13 -58 103 16 -61 106 0
-13 -58 103 -16 -61 106 0
13 58 -103 16 61 -106 0
13 58 103 41 86 131 0
-13 58 103 -41 86 131 0
13 -58 103 41 -86 131 0
-13 -58 103 -41 -86 131 0
13 58 -103 41 86 -131 0
13 58 103 19 64 109 0
-13 58 103 -19 64 109 0
13 -58 103 19 -64 109 0
-13 -58 103 -19 -64 109 0
13 58 -103 19 64 -109 0
14 59 104 25 70 115 0
-14 59 104 -25 70 115 0
14 -59 104 25 -70 115 0
-14 -59 104 -25 -70 115 0
14 59 -104 25 70 -115 0
14 59 104 45 90 135 0
-14 59 104 -45 90 135 0
14 -59 104 45 -90 135 0
-14 -59 104 -45 -90 135 0
14 59 -104 45 90 -135 0
14 59 104 24 69 114 0
-14 59 104 -24 69 114 0
14 -59 104 24 -69 114 0
-14 -59 104 -24 -69 114 0
14 59 -104 24 69 -114 0
14 59 104 44 89 134 0
-14 59 104 -44 89 134 0
14 -59 104 44 -89 134 0
-14 -59 104 -44 -89 134 0
14 59 -104 44 89 -134 0
14 59 104 34 79 124 0
-14 59 104 -34 79 124 0
14 -59 104 34 -79 124 0
-14 -59 104 -34 -79 124 0
14 59 -104 34 79 -124 0
14 59 104 32 77 122 0
-14 59 104 -32 77 122 0
14 -59 104 32 -77 122 0
-14 -59 104 -32 -77 122 0
14 59 -104 32 77 -122 0
14 59 104 23 68 113 0
-14 59 104 -23 68 113 0
14 -59 104 23 -68 113 0
-14 -59 104 -23 -68 113 0
14 59 -104 23 68 -113 0
15 60 105 44 89 134 0
-15 60 105 -44 89 134 0
15 -60 105 44 -89 134 0
-15 -60 105 -44 -89 134 0
15 60 -105 44 89 -134 0
15 60 105 35 80 125 0
-15 60 105 -35 80 125 0
15 -60 105 35 -80 125 0
-15 -60 105 -35 -80 125 0
15 60 -105 35 80 -125 0
15 60 105 20 65 110 0
-15 60 105 -20 65 110 0
15 -60 105 20 -65 110 0
-15 -60 105 -20 -65 110 0
15 60 -105 20 65 -110 0
15 60 105 43 88 133 0
-15 60 105 -43 88 133 0
15 -60 105 43 -88 133 0
-15 -60 105 -43 -88 133 0
15 60 -105 43 88 -133 0
16 61 106 43 88 133 0
-16 61 106 -43 88 133 0
16 -61 106 43 -88 133 0
-16 -61 106 -43 -88 133 0
16 61 -106 43 88 -133 0
16 61 106 31 76 121 0
-16 61 106 -31 76 121 0
16 -61 106 31 -76 121 0
-16 -61 106 -31 -76 121 0
16 61 -106 31 76 -121 0
16 61 106 36 81 126 0
-16 61 106 -36 81 126 0
16 -61 106 36 -81 126 0
-16 -61 106 -36 -81 126 0
16 61 -106 36 81 -126 0
16 61 106 30 75 120 0
-16 61 106 -30 75 120 0
16 -61 106 30 -75 120 0
-16 -61 106 -30 -75 120 0
16 61 -106 30 75 -120 0
17 62 107 18 63 108 0
-17 62 107 -18 63 108 0
17 -62 107 18 -63 108 0
-17 -62 107 -18 -63 108 0
17 62 -107 18 63 -108 0
17 62 107 25 70 115 0
-17 62 107 -25 70 115 0
17 -62 107 25 -70 115 0
-17 -62 107 -25 -70 115 0
17 62 -107 25 70 -115 0
17 62 107 21 66 111 0
-17 62 107 -21 66 111 0
17 -62 107 21 -66 111 0
-17 -62 107 -21 -66 111 0
17 62 -107 21 66 -111 0
17 62 107 19 64 109 0
-17 62 107 -19 64 109 0
17 -62 107 19 -64 109 0
-17 -62 107 -19 -64 109 0
17 62 -107 19 64 -109 0
17 62 107 40 85 130 0
-17 62 107 -40 85 130 0
17 -62 107 40 -85 130 0
-17 -62 107 -40 -85 130 0
17 62 -107 40 85 -130 0
17 62 107 35 80 125 0
-17 62 107 -35 80 125 0
17 -62 107 35 -80 125 0
-17 -62 107 -35 -80 125 0
17 62 -107 35 80 -125 0
17 62 107 21 66 111 0
-17 62 107 -21 66 111 0
17 -62 107 21 -66 111 0
-17 -62 107 -21 -66 111 0
17 62 -107 21 66 -111 0
18 63 108 20 65 110 0
-18 63 108 -20 65 110 0
18 -63 108 20 -65 110 0
-18 -63 108 -20 -65 110 0
18 63 -108 20 65 -110 0
18 63 108 22 67 112 0
-18 63 108 -22 67 112 0
18 -63 108 22 -67 112 0
-18 -63 108 -22 -67 112 0
18 63 -108 22 67 -112 0
18 63 108 41 86 131 0
-18 63 108 -41 86 131 0
18 -63 108 41 -86 131 0
-18 -63 108 -41 -86 131 0
18 63 -108 41 86 -131 0
18 63 108 19 64 109 0
-18 63 108 -19 64 109 0
18 -63 108 19 -64 109 0
-18 -63 108 -19 -64 109 0
18 63 -108 19 64 -109 0
18 63 108 32 77 122 0
-18 63 108 -32 77 122 0
18 -63 108 32 -77 122 0
-18 -63 108 -32 -77 122 0
18 63 -108 32 77 -122 0
18 63 108 23 68 113 0
-18 63 108 -23 68 113 0
18 -63 108 23 -68 113 0
-18 -63 108 -23 -68 113 0
18 63 -108 23 68 -113 0
19 64 109 42 87 132 0
-19 64 109 -42 87 132 0
19 -64 109 42 -87 132 0
-19 -64 109 -42 -87 132 0
19 64 -109 42 87 -132 0
19 64 109 43 88 133 0
-19 64 109 -43 88 133 0
19 -64 109 43 -88 133 0
-19 -64 109 -43 -88 133 0
19 64 -109 43 88 -133 0
19 64 109 44 89 134 0
-19 64 109 -44 89 134 0
19 -64 109 44 -89 134 0
-19 -64 109 -44 -89 134 0
19 64 -109 44 89 -134 0
20 65 110 38 83 128 0
-20 65 110 -38 83 128 0
20 -65 110 38 -83 128 0
-20 -65 110 -38 -83 128 0
20 65 -110 38 83 -128 0
20 65 110 38 83 128 0
-20 65 110 -38 83 128 0
20 -65 110 38 -83 128 0
-20 -65 110 -38 -83 128 0
20 65 -110 38 83 -128 0
20 65 110 28 73 118 0
-20 65 110 -28 73 118 0
20 -65 110 28 -73 118 0
-20 -65 110 -28 -73 118 0
20 65 -110 28 73 -118 0
20 65 110 23 68 113 0
-20 65 110 -23 68 113 0
20 -65 110 23 -68 113 0
-20 -65 110 -23 -68 113 0
20 65 -110 23 68 -113 0
20 65 110 32 77 122 0
-20 65 110 -32 77 122 0
20 -65 110 32 -77 122 0
-20 -65 110 -32 -77 122 0
20 65 -110 32 77 -122 0
21 66 111 37 82 127 0
-21 66 111 -37 82 127 0
21 -66 111 37 -82 127 0
-21 -66 111 -37 -82 127 0
21 66 -111 37 82 -127 0
21 66 111 39 84 129 0
-21 66 111 -39 84 129 0
21 -66 111 39 -84 129 0
-21 -66 111 -39 -84 129 0
21 66 -111 39 84 -129 0
21 66 111 44 89 134 0
-21 66 111 -44 89 134 0
21 -66 111 44 -89 134 0
-21 -66 111 -44 -89 134 0
21 66 -111 44 89 -134 0
21 66 111 33 78 123 0
-21 66 111 -33 78 123 0
21 -66 111 33 -78 123 0
-21 -66 111 -33 -78 123 0
21 66 -111 33 78 -123 0
21 66 111 41 86 131 0
-21 66 111 -41 86 131 0
21 -66 111 41 -86 131 0
-21 -66 111 -41 -86 131 0
21 66 -111 41 86 -131 0
21 66 111 31 76 121 0
-21 66 111 -31 76 121 0
21 -66 111 31 -76 121 0
-21 -66 111 -31 -76 121 0
21 66 -111 31 76 -121 0
22 67 112 28 73 118 0
-22 67 112 -28 73 118 0
22 -67 112 28 -73 118 0
-22 -67 112 -28 -73 118 0
22 67 -112 28 73 -118 0
22 67 112 30 75 120 0
-22 67 112 -30 75 120 0
22 -67 112 30 -75 120 0
-22 -67 112 -30 -75 120 0
22 67 -112 30 75 -120 0
22 67 112 31 76 121 0
-22 67 112 -31 76 121 0
22 -67 112 31 -76 121 0
-22 -67 112 -31 -76 121 0
22 67 -112 31 76 -121 0
22 67 112 34 79 124 0
-22 67 112 -34 79 124 0
22 -67 112 34 -79 124 0
-22 -67 112 -34 -79 124 0
22 67 -112 34 79 -124 0
23 68 113 40 85 130 0
-23 68 113 -40 85 130 0
23 -68 113 40 -85 130 0
-23 -68 113 -40 -85 130 0
23 68 -113 40 85 -130 0
23 68 113 26 71 116 0
-23 68 113 -26 71 116 0
23 -68 113 26 -71 116 0
-23 -68 113 -26 -71 116 0
23 68 -113 26 71 -116 0
23 68 113 44 89 134 0
-23 68 113 -44 89 134 0
23 -68 113 44 -89 134 0
-23 -68 113 -44 -89 134 0
23 68 -113 44 89 -134 0
23 68 113 36 81 126 0
-23 68 113 -36 81 126 0
23 -68 113 36 -81 126 0
-23 -68 113 -36 -81 126 0
23 68 -113 36 81 -126 0
23 68 113 39 84 129 0
-23 68 113 -39 84 129 0
23 -68 113 39 -84 129 0
-23 -68 113 -39 -84 129 0
23 68 -113 39 84 -129 0
23 68 113 29 74 119 0
-23 68 113 -29 74 119 0
23 -68 113 29 -74 119 0
-23 -68 113 -29 -74 119 0
23 68 -113 29 74 -119 0
23 68 113 27 72 117 0
-23 68 113 -27 72 117 0
23 -68 113 27 -72 117 0
-23 -68 113 -27 -72 117 0
23 68 -113 27 72 -117 0
24 69 114 39 84 129 0
-24 69 114 -39 84 129 0
24 -69 114 39 -84 129 0
-24 -69 114 -39 -84 129 0
24 69 -114 39 84 -129 0
24 69 114 33 78 123 0
-24 69 114 -33 78 123 0
24 -69 114 33 -78 123 0
-24 -69 114 -33 -78 123 0
24 69 -114 33 78 -123 0
24 69 114 45 90 135 0
-24 69 114 -45 90 135 0
24 -69 114 45 -90 135 0
-24 -69 114 -45 -90 135 0
24 69 -114 45 90 -135 0
24 69 114 25 70 115 0
-24 69 114 -25 70 115 0
24 -69 114 25 -70 115 0
-24 -69 114 -25 -70 115 0
24 69 -114 25 70 -115 0
24 69 114 32 77 122 0
-24 69 114 -32 77 122 0
24 -69 114 32 -77 122 0
-24 -69 114 -32 -77 122 0
24 69 -114 32 77 -122 0
25 70 115 44 89 134 0
-25 70 115 -44 89 134 0
25 -70 115 44 -89 134 0
-25 -70 115 -44 -89 134 0
25 70 -115 44 89 -134 0
25 70 115 31 76 121 0
-25 70 115 -31 76 121 0
25 -70 115 31 -76 121 0
-25 -70 115 -31 -76 121 0
25 70 -115 31 76 -121 0
25 70 115 28 73 118 0
-25 70 115 -28 73 118 0
25 -70 115 28 -73 118 0
-25 -70 115 -28 -73 118 0
25 70 -115 28 73 -118 0
25 70 115 42 87 132 0
-25 70 115 -42 87 132 0
25 -70 115 42 -87 132 0
-25 -70 115 -42 -87 132 0
25 70 -115 42 87 -132 0
26 71 116 28 73 118 0
-26 71 116 -28 73 118 0
26 -71 116 28 -73 118 0
-26 -71 116 -28 -73 118 0
26 71 -116 28 73 -118 0
26 71 116 30 75 120 0
-26 71 116 -30 75 120 0
26 -71 116 30 -75 120 0
-26 -71 116 -30 -75 120 0
26 71 -116 30 75 -120 0
26 71 116 27 72 117 0
-26 71 116 -27 72 117 0
26 -71 116 27 -72 117 0
-26 -71 116 -27 -72 117 0
26 71 -116 27 72 -117 0
26 71 116 37 82 127 0
-26 71 116 -37 82 127 0
26 -71 116 37 -82 127 0
-26 -71 116 -37 -82 127 0
26 71 -116 37 82 -127 0
26 71 116 32 77 122 0
-26 71 116 -32 77 122 0
26 -71 116 32 -77 122 0
-26 -71 116 -32 -77 122 0
26 71 -116 32 77 -122 0
26 71 116 31 76 121 0
-26 71 116 -31 76 121 0
26 -71 116 31 -76 121 0
-26 -71 116 -31 -76 121 0
26 71 -116 31 76 -121 0
27 72 117 28 73 118 0
-27 72 117 -28 73 118 0
27 -72 117 28 -73 118 0
-27 -72 117 -28 -73 118 0
27 72 -117 28 73 -118 0
27 72 117 28 73 118 0
-27 72 117 -28 73 118 0
27 -72 117 28 -73 118 0
-27 -72 117 -28 -73 118 0
27 72 -117 28 73 -118 0
27 72 117 43 88 133 0
-27 72 117 -43 88 133 0
27 -72 117 43 -88 133 0
-27 -72 117 -43 -88 133 0
27 72 -117 43 88 -133 0
27 72 117 41 86 131 0
-27 72 117 -41 86 131 0
27 -72 117 41 -86 131 0
-27 -72 117 -41 -86 131 0
27 72 -117 41 86 -131 0
28 73 118 38 83 128 0
-28 73 118 -38 83 128 0
28 -73 118 38 -83 128 0
-28 -73 118 -38 -83 128 0
28 73 -118 38 83 -128 0
28 73 118 36 81 126 0
-28 73 118 -36 81 126 0
28 -73 118 36 -81 126 0
-28 -73 118 -36 -81 126 0
28 73 -118 36 81 -126 0
28 73 118 34 79 124 0
-28 73 118 -34 79 124 0
28 -73 118 34 -79 124 0
-28 -73 118 -34 -79 124 0
28 73 -118 34 79 -124 0
28 73 118 45 90 135 0
-28 73 118 -45 90 135 0
28 -73 118 45 -90 135 0
-28 -73 118 -45 -90 135 0
28 73 -118 45 90 -135 0
29 74 119 30 75 120 0
-29 74 119 -30 75 120 0
29 -74 119 30 -75 120 0
-29 -74 119 -30 -75 120 0
29 74 -119 30 75 -120 0
29 74 119 34 79 124 0
-29 74 119 -34 79 124 0
29 -74 119 34 -79 124 0
-29 -74 119 -34 -79 124 0
29 74 -119 34 79 -124 0
29 74 119 39 84 129 0
-29 74 119 -39 84 129 0
29 -74 119 39 -84 129 0
-29 -74 119 -39 -84 129 0
29 74 -119 39 84 -129 0
29 74 119 33 78 123 0
-29 74 119 -33 78 123 0
29 -74 119 33 -78 123 0
-29 -74 119 -33 -78 123 0
29 74 -119 33 78 -123 0
30 75 120 35 80 125 0
-30 75 120 -35 80 125 0
30 -75 120 35 -80 125 0
-30 -75 120 -35 -80 125 0
30 75 -120 35 80 -125 0
30 75 120 36 81 126 0
-30 75 120 -36 81 126 0
30 -75 120 36 -81 126 0
-30 -75 120 -36 -81 126 0
30 75 -120 36 81 -126 0
30 75 120 40 85 130 0
-30 75 120 -40 85 130 0
30 -75 120 40 -85 130 0
-30 -75 120 -40 -85 130 0
30 75 -120 40 85 -130 0
30 75 120 38 83 128 0
-30 75 120 -38 83 128 0
30 -75 120 38 -83 128 0
-30 -75 120 -38 -83 128 0
30 75 -120 38 83 -128 0
31 76 121 40 85 130 0
-31 76 121 -40 85 130 0
31 -76 121 40 -85 130 0
-31 -76 121 -40 -85 130 0
31 76 -121 40 85 -130 0
31 76 121 38 83 128 0
-31 76 121 -38 83 128 0
31 -76 121 38 -83 128 0
-31 -76 121 -38 -83 128 0
31 76 -121 38 83 -128 0
32 77 122 42 87 132 0
-32 77 122 -42 87 132 0
32 -77 122 42 -87 132 0
-32 -77 122 -42 -87 132 0
32 77 -122 42 87 -132 0
32 77 122 45 90 135 0
-32 77 122 -45 90 135 0
32 -77 122 45 -90 135 0
-32 -77 122 -45 -90 135 0
32 77 -122 45 90 -135 0
32 77 122 44 89 134 0
-32 77 122 -44 89 134 0
32 -77 122 44 -89 134 0
-32 -77 122 -44 -89 134 0
32 77 -122 44 89 -134 0
32 77 122 35 80 125 0
-32 77 122 -35 80 125 0
32 -77 122 35 -80 125 0
-32 -77 122 -35 -80 125 0
32 77 -122 35 80 -125 0
33 78 123 38 83 128 0
-33 78 123 -38 83 128 0
33 -78 123 38 -83 128 0
-33 -78 123 -38 -83 128 0
33 78 -123 38 83 -128 0
33 78 123 42 87 132 0
-33 78 123 -42 87 132 0
33 -78 123 42 -87 132 0
-33 -78 123 -42 -87 132 0
33 78 -123 42 87 -132 0
34 79 124 36 81 126 0
-34 79 124 -36 81 126 0
34 -79 124 36 -81 126 0
-34 -79 124 -36 -81 126 0
34 79 -124 36 81 -126 0
34 79 124 37 82 127 0
-34 79 124 -37 82 127 0
34 -79 124 37 -82 127 0
-34 -79 124 -37 -82 127 0
34 79 -124 37 82 -127 0
34 79 124 37 82 127 0
-34 79 124 -37 82 127 0
34 -79 124 37 -82 127 0
-34 -79 124 -37 -82 127 0
34 79 -124 37 82 -127 0
35 80 125 39 84 129 0
-35 80 125 -39 84 129 0
35 -80 125 39 -84 129 0
-35 -80 125 -39 -84 129 0
35 80 -125 39 84 -129 0
35 80 125 39 84 129 0
-35 80 125 -39 84 129 0
35 -80 125 39 -84 129 0
-35 -80 125 -39 -84 129 0
35 80 -125 39 84 -129 0
36 81 126 37 82 127 0
-36 81 126 -37 82 127 0
36 -81 126 37 -82 127 0
-36 -81 126 -37 -82 127 0
36 81 -126 37 82 -127 0
36 81 126 42 87 132 0
-36 81 126 -42 87 132 0
36 -81 126 42 -87 132 0
-36 -81 126 -42 -87 132 0
36 81 -126 42 87 -132 0
37 82 127 42 87 132 0
-37 82 127 -42 87 132 0
37 -82 127 42 -87 132 0
-37 -82 127 -42 -87 132 0
37 82 -127 42 87 -132 0
37 82 127 42 87 132 0
-37 82 127 -42 87 132 0
37 -82 127 42 -87 132 0
-37 -82 127 -42 -87 132 0
37 82 -127 42 87 -132 0
38 83 128 45 90 135 0
-38 83 128 -45 90 135 0
38 -83 128 45 -90 135 0
-38 -83 128 -45 -90 135 0
38 83 -128 45 90 -135 0
39 84 129 42 87 132 0
-39 84 129 -42 87 132 0
39 -84 129 42 -87 132 0
-39 -84 129 -42 -87 132 0
39 84 -129 42 87 -132 0
39 84 129 40 85 130 0
-39 84 129 -40 85 130 0
39 -84 129 40 -85 130 0
-39 -84 129 -40 -85 130 0
39 84 -129 40 85 -130 0
39 84 129 45 90 135 0
-39 84 129 -45 90 135 0
39 -84 129 45 -90 135 0
-39 -84 129 -45 -90 135 0
39 84 -129 45 90 -135 0
41 86 131 43 88 133 0
-41 86 131 -43 88 133 0
41 -86 131 43 -88 133 0
-41 -86 131 -43 -88 133 0
41 86 -131 43 88 -133 0
43 88 133 44 89 134 0
-43 88 133 -44 89 134 0
43 -88 133 44 -89 134 0
-43 -88 133 -44 -89 134 0
43 88 -133 44 89 -134 0
44 89 134 45 90 135 0
-44 89 134 -45 90 135 0
44 -89 134 45 -90 135 0
-44 -89 134 -45 -90 135 0
44 89 -134 45 90 -135 0
c p weight 3 0.28551750 0
c p weight -3 0.71448250 0
c p weight 5 0.61041391 0
c p weight -5 0.38958609 0
c p weight 6 0.52059195 0
c p weight -6 0.47940805 0
c p weight 7 0.47195193 0
c p weight -7 0.52804807 0
c p weight 8 0.41052404 0
c p weight -8 0.58947596 0
c p weight 10 0.31374761 0
c p weight -10 0.68625239 0
c p weight 12 0.20227694 0
c p weight -12 0.79772306 0
c p weight 13 0.69712738 0
c p weight -13 0.30287262 0
c p weight 17 0.75667370 0
c p weight -17 0.24332630 0
c p weight 21 0.56617516 0
c p weight -21 0.43382484 0
c p weight 22 0.39309821 0
c p weight -22 0.60690179 0
c p weight 23 0.35747827 0
c p weight -23 0.64252173 0
c p weight 24 0.43549513 0
c p weight -24 0.56450487 0
c p weight 28 0.45032563 0
c p weight -28 0.54967437 0
c p weight 30 0.26705076 0
c p weight -30 0.73294924 0
c p weight 32 0.39890119 0
c p weight -32 0.60109881 0
c p weight 33 0.53594602 0
c p weight -33 0.46405398 0
c p weight 38 0.65141560 0
c p weight -38 0.34858440 0
c p weight 42 0.44624600 0
c p weight -42 0.55375400 0
c p weight 43 0.33732812 0
c p weight -43 0.66267188 0
c p weight 44 0.49517011 0
c p weight -44 0.50482989 0
c p weight 47 0.60839558 0
c p weight -47 0.39160442 0
c p weight 48 0.56108660 0
c p weight -48 0.43891340 0
c p weight 50 0.44372930 0
c p weight -50 0.55627070 0
c p weight 51 0.33299353 0
c p weight -51 0.66700647 0
c p weight 52 0.70991828 0
c p weight -52 0.29008172 0
c p weight 54 0.48500782 0
c p weight -54 0.51499218 0
c p weight 55 0.59965904 0
c p weight -55 0.40034096 0
c p weight 56 0.78090652 0
c p weight -56 0.21909348 0
c p weight 57 0.65285232 0
c p weight -57 0.34714768 0
c p weight 58 0.56388714 0
c p weight -58 0.43611286 0
c p weight 62 0.40266473 0
c p weight -62 0.59733527 0
c p weight 63 0.68311235 0
c p weight -63 0.31688765 0
c p weight 64 0.21331348 0
c p weight -64 0.78668652 0
c p weight 65 0.45225664 0
c p weight -65 0.54774336 0
c p weight 66 0.27227713 0
c p weight -66 0.72772287 0
c p weight 71 0.45513354 0
c p weight -71 0.54486646 0
c p weight 72 0.45247469 0
c p weight -72 0.54752531 0
c p weight 75 0.50107569 0
c p weight -75 0.49892431 0
c p weight 76 0.46240752 0
c p weight -76 0.53759248 0
c p weight 79 0.78558007 0
c p weight -79 0.21441993 0
c p weight 82 0.76407625 0
c p weight -82 0.23592375 0
c p weight 86 0.26271098 0
c p weight -86 0.73728902 0
c p weight 88 0.39240906 0
c p weight -88 0.60759094 0
c p weight 91 0.48281446 0
c p weight -91 0.51718554 0
c p weight 92 0.54913382 0
c p weight -92 0.45086618 0
c p weight 93 0.46290302 0
c p weight -93 0.53709698 0
c p weight 94 0.38457413 0
c p weight -94 0.61542587 0
c p weight 96 0.58997089 0
c p weight -96 0.41002911 0
c p weight 98 0.30186609 0
c p weight -98 0.69813391 0
c p weight 99 0.20832837 0
c p weight -99 0.79167163 0
c p weight 100 0.56156086 0
c p weight -100 0.43843914 0
c p weight 102 0.58314055 0
c p weight -102 0.41685945 0
c p weight 104 0.34689431 0
c p weight -104 0.65310569 0
c p weight 107 0.47168863 0
c p weight -107 0.52831137 0
c p weight 109 0.79508388 0
c p weight -109 0.20491612 0
c p weight 110 0.79708477 0
c p weight -110 0.20291523 0
c p weight 113 0.44637690 0
c p weight -113 0.55362310 0
c p weight 114 0.77642856 0
c p weight -114 0.22357144 0
c p weight 115 0.43631672 0
c p weight -115 0.56368328 0
c p weight 116 0.68792775 0
c p weight -116 0.31207225 0
c p weight 120 0.68960038 0
c p weight -120 0.31039962 0
c p weight 123 0.53619315 0
c p weight -123 0.46380685 0
c p weight 124 0.70880213 0
c p weight -124 0.29119787 0
c p weight 125 0.35014673 0
c p weight -125 0.64985327 0
c p weight 128 0.76597811 0
c p weight -128 0.23402189 0
c p weight 131 0.23220499 0
c p weight -131 0.76779501 0
c p weight 135 0.41698881 0
c p weight -135 0.58301119 0
